CrI3 single layer POSCAR
1.0
        7.0037999153         0.0000000000         0.0000000000
       -3.5018999577         6.0654686497         0.0000000000
        0.0000000000         0.0000000000        23.1228008270
    I   Cr
    6    2
Direct
     0.666579995         0.973440005         0.135050002
     0.026559978         0.693149972         0.135050002
     0.306849977         0.333420014         0.135050002
     0.666750005         0.693230002         0.000000000
     0.306770021         0.973520035         0.000000000
     0.026480005         0.333250009         0.000000000
     0.000000000         0.000000000         0.067589996
     0.333330027         0.666670062         0.067469997
